p wcnf 1000 200 1
1 1 0
1 2 0
1 3 0
1 4 0
1 5 0
1 6 0
1 7 0
1 8 0
1 9 0
1 10 0
1 11 0
1 12 0
1 2 2 2 2 2 2 2 2 2 2 2 0
1 2 2 3 3 3 3 3 3 3 3 3 0
1 3 3 3 3 3 4 4 4 4 4 4 0
1 4 4 4 4 4 4 4 5 5 5 5 0
1 5 5 5 5 6 6 6 6 6 6 6 0
1 6 6 6 7 7 7 7 7 7 7 7 0
1 7 7 8 8 8 8 8 8 8 8 8 0
1 9 9 9 9 9 9 9 9 10 10 10 0
1 10 10 10 10 10 11 11 11 11 11 11 0
1 12 12 12 12 12 12 12 12 12 12 12 0
1 12 12 13 13 13 13 13 13 13 13 14 0
1 14 14 14 14 14 14 14 14 14 14 14 0
1 15 15 15 15 15 15 15 15 15 15 15 0
1 15 15 15 15 16 16 16 16 16 16 17 0
1 17 17 17 18 18 18 18 18 18 18 18 0
1 18 18 18 18 19 19 19 19 19 19 19 0
1 20 20 20 20 20 20 20 20 20 20 20 0
1 21 21 21 21 21 21 21 21 22 22 22 0
1 22 22 22 22 22 22 23 23 23 23 23 0
1 23 23 23 23 23 24 24 24 24 24 24 0
1 24 24 24 24 25 25 25 25 25 25 25 0
1 26 26 26 26 26 26 26 26 27 27 27 0
1 27 27 27 27 27 27 27 27 27 28 28 0
1 28 28 28 28 29 29 29 29 29 29 29 0
1 30 30 30 30 30 31 31 31 31 31 31 0
1 31 31 31 32 32 32 32 32 32 32 32 0
1 32 32 33 33 33 33 33 33 33 33 33 0
1 34 34 34 34 34 34 34 35 35 35 35 0
1 35 35 35 36 36 36 36 36 36 36 36 0
1 36 36 37 37 37 37 37 37 37 37 37 0
1 37 38 38 38 38 38 38 38 38 38 38 0
1 38 38 39 39 39 39 39 39 39 39 39 0
1 40 40 40 40 40 40 40 40 40 40 40 0
1 40 41 41 41 41 41 41 41 41 41 42 0
1 42 42 42 42 42 42 42 42 42 42 42 0
1 43 43 43 43 43 43 43 43 43 44 44 0
1 44 44 44 44 44 45 45 45 45 45 45 0
1 45 46 46 46 46 46 46 46 46 46 46 0
1 47 47 47 47 47 47 47 47 47 47 47 0
1 47 47 48 48 48 48 48 48 49 49 49 0
1 49 49 49 49 49 49 50 50 50 50 50 0
1 50 50 50 51 51 51 51 51 52 52 52 0
1 52 52 52 52 52 52 53 53 53 53 53 0
1 53 53 53 53 53 54 54 54 54 54 54 0
1 54 54 54 54 55 55 55 55 55 55 55 0
1 55 56 56 56 56 56 56 56 56 56 57 0
1 57 57 57 57 57 57 57 57 57 58 58 0
1 58 58 58 58 58 58 59 59 59 59 59 0
1 59 59 59 59 59 59 59 60 60 60 60 0
1 60 61 61 61 61 61 61 61 61 61 62 0
1 62 62 62 62 63 63 63 63 63 63 63 0
1 63 64 64 64 64 64 64 64 64 64 64 0
1 64 64 65 65 65 65 65 65 65 66 66 0
1 66 66 66 66 66 66 66 66 66 67 67 0
1 67 67 67 67 67 67 67 67 67 68 68 0
1 68 68 68 68 68 68 69 69 69 69 70 0
1 70 70 70 70 70 70 70 70 70 70 70 0
1 70 71 71 71 71 71 71 71 71 72 72 0
1 72 72 72 72 72 72 72 72 72 72 73 0
1 73 73 73 73 73 73 73 73 73 73 73 0
1 73 74 74 74 74 74 74 74 75 75 75 0
1 75 75 75 75 75 76 76 76 76 76 76 0
1 76 76 76 76 76 76 76 76 76 76 77 0
1 77 77 77 77 77 77 78 78 78 78 78 0
1 78 78 79 79 79 79 79 79 79 79 79 0
1 79 79 79 79 80 80 80 80 80 80 80 0
1 80 81 81 81 81 81 81 81 81 81 81 0
1 82 83 83 83 83 83 83 83 83 84 84 0
1 84 84 84 84 84 85 85 85 85 85 85 0
1 85 85 86 86 86 86 86 86 86 86 86 0
1 87 87 87 87 87 87 87 87 87 88 88 0
1 88 88 88 89 89 89 89 89 89 89 89 0
1 89 89 90 90 90 90 90 90 90 90 91 0
1 91 91 91 91 91 91 91 91 91 91 91 0
1 91 92 92 92 92 92 92 93 93 93 93 0
1 93 93 93 93 93 93 94 94 94 94 94 0
1 94 95 95 95 95 95 95 95 95 96 96 0
1 96 96 96 96 96 96 96 96 96 97 97 0
1 97 97 97 97 97 97 97 97 98 98 98 0
1 98 98 98 98 99 99 99 99 99 99 99 0
1 99 99 99 99 99 99 99 99 100 100 100 0
1 100 100 100 100 100 100 100 100 100 100 100 0
1 100 100 100 0
1  0
1 214 230 289 351 416 488 491 518 567 720 721 0
1 753 768 928 990 0
1  0
1 47 99 192 299 322 340 500 619 628 640 663 0
1 736 796 844 930 970 0
1  0
1 37 56 115 151 160 178 182 218 228 345 388 0
1 588 607 614 629 635 636 673 757 793 800 849 0
1 929 0
1  0
1 93 125 328 334 337 391 402 559 697 703 733 0
1 790 909 0
1  0
1 81 85 116 165 261 277 280 290 331 338 353 0
1 506 540 557 590 653 712 715 802 884 978 0
1  0
1 51 78 200 236 317 332 469 495 578 701 712 0
1 822 830 839 988 0
1  0
1 129 435 459 491 512 548 551 576 640 643 648 0
1 813 916 948 954 983 999 0
1  0
1 150 276 278 379 389 437 493 507 537 568 608 0
1 710 770 908 935 0
1  0
1 59 136 139 178 214 258 288 307 328 476 632 0
1 735 758 793 880 886 949 0
1  0
1 6 64 101 104 144 180 276 402 422 538 600 0
1 638 694 731 889 942 0
1  0
1 118 255 278 434 463 480 555 576 634 669 674 0
1 751 883 964 0
1  0
1 24 29 45 60 74 117 136 162 232 318 371 0
1 421 433 460 612 659 660 779 800 835 0
1  0
1 136 385 389 426 546 702 778 789 831 970 0
1  0
1 99 205 275 364 423 543 559 569 609 638 642 0
1 836 858 0
1  0
1 127 149 181 185 228 332 375 426 436 437 486 0
1 570 594 601 808 814 818 827 874 903 960 972 0
1  0
1 242 354 365 405 418 428 449 547 565 598 652 0
1 684 780 829 852 865 0
1  0
1 17 33 115 172 180 202 225 297 298 317 390 0
1 526 528 547 595 654 680 709 743 801 804 891 0
1  0
1  0
1 80 98 122 146 162 328 394 414 445 460 501 0
1 622 681 691 807 841 845 0
1  0
1 97 112 175 253 324 421 454 605 715 746 785 0
1 989 0
1  0
1 125 144 185 195 219 273 303 371 399 400 583 0
1 625 681 726 969 0
1  0
1 109 125 149 187 456 580 673 678 804 897 0
1  0
1 80 116 158 172 267 287 294 313 338 390 401 0
1 476 492 560 629 682 753 0
1  0
1 19 63 67 82 85 305 371 429 439 452 560 0
1 630 631 647 681 752 847 931 0
1  0
1 110 129 141 180 198 213 227 244 370 396 397 0
1 472 487 500 598 629 636 641 690 725 777 832 0
1 915 956 983 991 993 0
1  0
1 118 122 148 159 164 183 209 322 365 377 470 0
1 517 660 667 707 747 855 880 883 931 936 937 0
1  0
1  0
1 52 147 165 177 188 317 323 325 330 468 531 0
1 736 782 808 973 0
1  0
1 138 194 294 312 315 339 352 510 556 585 627 0
1 680 724 784 839 951 0
1  0
1 279 302 307 450 478 551 603 625 644 687 757 0
1 871 992 0
1  0
1 34 67 70 99 106 160 450 460 479 533 585 0
1 618 674 713 756 861 909 935 0
1  0
1 111 115 258 268 276 366 518 523 608 636 668 0
1 768 854 859 916 921 924 928 986 0
1  0
1 48 121 131 141 197 266 279 376 447 568 571 0
1 702 865 874 904 937 0
1  0
1 17 20 37 84 132 163 184 302 322 358 390 0
1 535 553 557 566 569 585 645 730 732 746 771 0
1 786 904 905 982 0
1  0
1 96 155 181 246 398 412 446 470 556 606 623 0
1 714 814 889 914 0
1  0
1 275 278 335 402 499 500 542 603 666 736 869 0
1  0
1 43 198 205 238 345 365 405 421 474 536 620 0
1 647 651 672 722 831 865 899 954 959 961 968 0
1  0
1  0
1 35 115 210 224 279 311 324 353 442 447 481 0
1 555 612 664 673 700 867 952 990 0
1  0
1 155 198 251 296 310 372 462 463 543 580 597 0
1 610 708 748 751 761 768 776 819 846 863 871 0
1  0
1  0
1 67 98 228 242 245 248 281 301 336 374 388 0
